0 11718 
1 11666 
2 11658 
3 11444 
4 11400 
5 11316 
6 11306 
7 11294 
8 11106 
9 11072 
10 11070 
11 11022 
12 11014 
13 10990 
14 10978 
15 10946 
16 10870 
17 10720 
18 10568 
19 10452 
20 10324 
21 10098 
22 9954 
23 9904 
24 9898 
25 9788 
26 9708 
27 9660 
28 9622 
29 9450 
30 9234 
31 9080 
32 9068 
33 9062 
34 9010 
35 8872 
36 8804 
37 8724 
38 8704 
39 8512 
40 8508 
41 8472 
42 8394 
43 8374 
44 8302 
45 8262 
46 8094 
47 8024 
48 7952 
49 7938 
50 7902 
51 7876 
52 7738 
53 7688 
54 7656 
55 7634 
56 7554 
57 7528 
58 7456 
59 7424 
60 7396 
61 7134 
62 7082 
63 7054 
64 6982 
65 6770 
66 6688 
67 6314 
68 6300 
69 6180 
70 6144 
71 6076 
72 6028 
73 5796 
74 5760 
75 5646 
76 5646 
77 5538 
78 5206 
79 5134 
80 5122 
81 5032 
82 4958 
83 4770 
84 4746 
85 4692 
86 4392 
87 4238 
88 4220 
89 4198 
90 4186 
91 4156 
92 4148 
93 4098 
94 3834 
95 3782 
96 3710 
97 3586 
98 3514 
99 3506 
100 3506 
101 3494 
102 3494 
103 3482 
104 3354 
105 3296 
106 3168 
107 3126 
108 3068 
109 3068 
110 3056 
111 3002 
112 3002 
113 3002 
114 3002 
115 3002 
116 3002 
117 3002 
118 3002 
119 3002 
120 3002 
121 3002 
122 3002 
123 3002 
124 3002 
125 3002 
126 3002 
127 3002 
128 3002 
129 3002 
130 3002 
131 3002 
132 3002 
133 3002 
134 3002 
135 3002 
136 3002 
137 3002 
138 3002 
139 3002 
140 3002 
141 3002 
142 3002 
143 3002 
144 3002 
145 3002 
146 3002 
147 3002 
148 3002 
149 3002 
150 3002 
151 3002 
152 3002 
153 3002 
154 3002 
155 3002 
156 3002 
157 3002 
158 3002 
159 3002 
160 3002 
161 3002 
162 3002 
163 3002 
164 3002 
165 3002 
166 3002 
167 3002 
168 3002 
169 3002 
170 3002 
171 3002 
172 3002 
173 3002 
174 3002 
175 3002 
176 3002 
177 3002 
178 3002 
179 3002 
180 3002 
181 3002 
182 3002 
183 3002 
184 3002 
185 3002 
186 3002 
187 3002 
188 3002 
189 3002 
190 3002 
191 3002 
192 3002 
193 3002 
194 3002 
195 3002 
196 3002 
197 3002 
198 3002 
199 3002 
200 3002 
201 3002 
202 3002 
203 3002 
204 3002 
205 3002 
206 3002 
207 3002 
208 3002 
209 3002 
210 3002 
211 3002 
212 3002 
213 3002 
214 3002 
215 3002 
216 3002 
217 3002 
218 3002 
219 3002 
220 3002 
221 3002 
222 3002 
223 3002 
224 3002 
225 3002 
226 3002 
227 3002 
228 3002 
229 3002 
230 3002 
231 3002 
232 3002 
233 3002 
234 3002 
235 3002 
236 3002 
237 3002 
238 3002 
239 3002 
240 3002 
241 3002 
242 3002 
243 3002 
244 3002 
245 3002 
246 3002 
247 3002 
248 3002 
249 3002 
250 3002 
251 3002 
252 3002 
253 3002 
254 3002 
255 3002 
256 3002 
257 3002 
258 3002 
259 3002 
260 3002 
261 3002 
262 3002 
263 3002 
264 3002 
265 3002 
266 3002 
267 3002 
268 3002 
269 3002 
270 3002 
271 3002 
272 3002 
273 3002 
274 3002 
275 3002 
276 3002 
277 3002 
278 3002 
279 3002 
280 3002 
281 3002 
282 3002 
283 3002 
284 3002 
285 3002 
286 3002 
287 3002 
288 3002 
289 3002 
290 3002 
291 3002 
292 3002 
293 3002 
294 3002 
295 3002 
296 3002 
297 3002 
298 3002 
299 3002 
300 3002 
301 3002 
302 3002 
303 3002 
304 3002 
305 3002 
306 3002 
307 3002 
308 3002 
309 3002 
310 3002 
311 3002 
312 3002 
313 3002 
314 3002 
315 3002 
316 3002 
317 3002 
318 3002 
319 3002 
320 3002 
321 3002 
322 3002 
323 3002 
324 3002 
325 3002 
326 3002 
327 3002 
328 3002 
329 3002 
330 3002 
331 3002 
332 3002 
333 3002 
334 3002 
335 3002 
336 3002 
337 3002 
338 3002 
339 3002 
340 3002 
341 3002 
342 3002 
343 3002 
344 3002 
345 3002 
346 3002 
347 3002 
348 3002 
349 3002 
350 3002 
351 3002 
352 3002 
353 3002 
354 3002 
355 3002 
356 3002 
357 3002 
358 3002 
359 3002 
360 3002 
361 3002 
362 3002 
363 3002 
364 3002 
365 3002 
366 3002 
367 3002 
368 3002 
369 3002 
370 3002 
371 3002 
372 3002 
373 3002 
374 3002 
375 3002 
376 3002 
377 3002 
378 3002 
379 3002 
380 3002 
381 3002 
382 3002 
383 3002 
384 3002 
385 3002 
386 3002 
387 3002 
388 3002 
389 3002 
390 3002 
391 3002 
392 3002 
393 3002 
394 3002 
395 3002 
396 3002 
397 3002 
398 3002 
399 3002 
400 3002 
401 3002 
402 3002 
403 3002 
404 3002 
405 3002 
406 3002 
407 3002 
408 3002 
409 3002 
410 3002 
411 3002 
412 3002 
413 3002 
414 3002 
415 3002 
416 3002 
417 3002 
418 3002 
419 3002 
420 3002 
421 3002 
422 3002 
423 3002 
424 3002 
425 3002 
426 3002 
427 3002 
428 3002 
429 3002 
430 3002 
431 3002 
432 3002 
433 3002 
434 3002 
435 3002 
436 3002 
437 3002 
438 3002 
439 3002 
440 3002 
441 3002 
442 3002 
443 3002 
444 3002 
445 3002 
446 3002 
447 3002 
448 3002 
449 3002 
450 3002 
451 3002 
452 3002 
453 3002 
454 3002 
455 3002 
456 3002 
457 3002 
458 3002 
459 3002 
460 3002 
461 3002 
462 3002 
463 3002 
464 3002 
465 3002 
466 3002 
467 3002 
468 3002 
469 3002 
470 3002 
471 3002 
472 3002 
473 3002 
474 3002 
475 3002 
476 3002 
477 3002 
478 3002 
479 3002 
480 3002 
481 3002 
482 3002 
483 3002 
484 3002 
485 3002 
486 3002 
487 3002 
488 3002 
489 3002 
490 3002 
491 3002 
492 3002 
493 3002 
494 3002 
495 3002 
496 3002 
497 3002 
498 3002 
499 3002 
500 3002 
501 3002 
502 3002 
503 3002 
504 3002 
505 3002 
506 3002 
507 3002 
508 3002 
509 3002 
510 3002 
511 3002 
512 3002 
513 3002 
514 3002 
515 3002 
516 3002 
517 3002 
518 3002 
519 3002 
520 3002 
521 3002 
522 3002 
523 3002 
524 3002 
525 3002 
526 3002 
527 3002 
528 3002 
529 3002 
530 3002 
531 3002 
532 3002 
533 3002 
534 3002 
535 3002 
536 3002 
537 3002 
538 3002 
539 3002 
540 3002 
541 3002 
542 3002 
543 3002 
544 3002 
545 3002 
546 3002 
547 3002 
548 3002 
549 3002 
550 3002 
551 3002 
552 3002 
553 3002 
554 3002 
555 3002 
556 3002 
557 3002 
558 3002 
559 3002 
560 3002 
561 3002 
562 3002 
563 3002 
564 3002 
565 3002 
566 3002 
567 3002 
568 3002 
569 3002 
570 3002 
571 3002 
572 3002 
573 3002 
574 3002 
575 3002 
576 3002 
577 3002 
578 3002 
579 3002 
580 3002 
581 3002 
582 3002 
583 3002 
584 3002 
585 3002 
586 3002 
587 3002 
588 3002 
589 3002 
590 3002 
591 3002 
592 3002 
593 3002 
594 3002 
595 3002 
596 3002 
597 3002 
598 3002 
599 3002 
600 3002 
601 3002 
602 3002 
603 3002 
604 3002 
605 3002 
606 3002 
607 3002 
608 3002 
609 3002 
610 3002 
611 3002 
612 3002 
613 3002 
614 3002 
615 3002 
616 3002 
617 3002 
618 3002 
619 3002 
620 3002 
621 3002 
622 3002 
623 3002 
624 3002 
625 3002 
626 3002 
627 3002 
628 3002 
629 3002 
630 3002 
631 3002 
632 3002 
633 3002 
634 3002 
635 3002 
636 3002 
637 3002 
638 3002 
639 3002 
640 3002 
641 3002 
642 3002 
643 3002 
644 3002 
645 3002 
646 3002 
647 3002 
648 3002 
649 3002 
650 3002 
651 3002 
652 3002 
653 3002 
654 3002 
655 3002 
656 3002 
657 3002 
658 3002 
659 3002 
660 3002 
661 3002 
662 3002 
663 3002 
664 3002 
665 3002 
666 3002 
667 3002 
668 3002 
669 3002 
670 3002 
671 3002 
672 3002 
673 3002 
674 3002 
675 3002 
676 3002 
677 3002 
678 3002 
679 3002 
680 3002 
681 3002 
682 3002 
683 3002 
684 3002 
685 3002 
686 3002 
687 3002 
688 3002 
689 3002 
690 3002 
691 3002 
692 3002 
693 3002 
694 3002 
695 3002 
696 3002 
697 3002 
698 3002 
699 3002 
700 3002 
701 3002 
702 3002 
703 3002 
704 3002 
705 3002 
706 3002 
707 3002 
708 3002 
709 3002 
710 3002 
711 3002 
712 3002 
713 3002 
714 3002 
715 3002 
716 3002 
717 3002 
718 3002 
719 3002 
720 3002 
721 3002 
722 3002 
723 3002 
724 3002 
725 3002 
726 3002 
727 3002 
728 3002 
729 3002 
730 3002 
731 3002 
732 3002 
733 3002 
734 3002 
735 3002 
736 3002 
737 3002 
738 3002 
739 3002 
740 3002 
741 3002 
742 3002 
743 3002 
744 3002 
745 3002 
746 3002 
747 3002 
748 3002 
749 3002 
750 3002 
751 3002 
752 3002 
753 3002 
754 3002 
755 3002 
756 3002 
757 3002 
758 3002 
759 3002 
760 3002 
761 3002 
762 3002 
763 3002 
764 3002 
765 3002 
766 3002 
767 3002 
768 3002 
769 3002 
770 3002 
771 3002 
772 3002 
773 3002 
774 3002 
775 3002 
776 3002 
777 3002 
778 3002 
779 3002 
780 3002 
781 3002 
782 3002 
783 3002 
784 3002 
785 3002 
786 3002 
787 3002 
788 3002 
789 3002 
790 3002 
791 3002 
792 3002 
793 3002 
794 3002 
795 3002 
796 3002 
797 3002 
798 3002 
799 3002 
800 3002 
801 3002 
802 3002 
803 3002 
804 3002 
805 3002 
806 3002 
807 3002 
808 3002 
809 3002 
810 3002 
811 3002 
812 3002 
813 3002 
814 3002 
815 3002 
816 3002 
817 3002 
818 3002 
819 3002 
820 3002 
821 3002 
822 3002 
823 3002 
824 3002 
825 3002 
826 3002 
827 3002 
828 3002 
829 3002 
830 3002 
831 3002 
832 3002 
833 3002 
834 3002 
835 3002 
836 3002 
837 3002 
838 3002 
839 3002 
840 3002 
841 3002 
842 3002 
843 3002 
844 3002 
845 3002 
846 3002 
847 3002 
848 3002 
849 3002 
850 3002 
851 3002 
852 3002 
853 3002 
854 3002 
855 3002 
856 3002 
857 3002 
858 3002 
859 3002 
860 3002 
861 3002 
862 3002 
863 3002 
864 3002 
865 3002 
866 3002 
867 3002 
868 3002 
869 3002 
870 3002 
871 3002 
872 3002 
873 3002 
874 3002 
875 3002 
876 3002 
877 3002 
878 3002 
879 3002 
880 3002 
881 3002 
882 3002 
883 3002 
884 3002 
885 3002 
886 3002 
887 3002 
888 3002 
889 3002 
890 3002 
891 3002 
892 3002 
893 3002 
894 3002 
895 3002 
896 3002 
897 3002 
898 3002 
899 3002 
900 3002 
901 3002 
902 3002 
903 3002 
904 3002 
905 3002 
906 3002 
907 3002 
908 3002 
909 3002 
910 3002 
911 3002 
912 3002 
913 3002 
914 3002 
915 3002 
916 3002 
917 3002 
918 3002 
919 3002 
920 3002 
921 3002 
922 3002 
923 3002 
924 3002 
925 3002 
926 3002 
927 3002 
928 3002 
929 3002 
930 3002 
931 3002 
932 3002 
933 3002 
934 3002 
935 3002 
936 3002 
937 3002 
938 3002 
939 3002 
940 3002 
941 3002 
942 3002 
943 3002 
944 3002 
945 3002 
946 3002 
947 3002 
948 3002 
949 3002 
950 3002 
951 3002 
952 3002 
953 3002 
954 3002 
955 3002 
956 3002 
957 3002 
958 3002 
959 3002 
960 3002 
961 3002 
962 3002 
963 3002 
964 3002 
965 3002 
966 3002 
967 3002 
968 3002 
969 3002 
970 3002 
971 3002 
972 3002 
973 3002 
974 3002 
975 3002 
976 3002 
977 3002 
978 3002 
979 3002 
980 3002 
981 3002 
982 3002 
983 3002 
984 3002 
985 3002 
986 3002 
987 3002 
988 3002 
989 3002 
990 3002 
991 3002 
992 3002 
993 3002 
994 3002 
995 3002 
996 3002 
997 3002 
998 3002 
999 3002 
1000 3002 
1001 3002 
1002 3002 
1003 3002 
1004 3002 
1005 3002 
1006 3002 
1007 3002 
1008 3002 
1009 3002 
1010 3002 
1011 3002 
1012 3002 
1013 3002 
1014 3002 
1015 3002 
1016 3002 
1017 3002 
1018 3002 
1019 3002 
1020 3002 
1021 3002 
1022 3002 
1023 3002 
1024 3002 
1025 3002 
1026 3002 
1027 3002 
1028 3002 
1029 3002 
1030 3002 
1031 3002 
1032 3002 
1033 3002 
1034 3002 
1035 3002 
1036 3002 
1037 3002 
1038 3002 
1039 3002 
1040 3002 
1041 3002 
1042 3002 
1043 3002 
1044 3002 
1045 3002 
1046 3002 
1047 3002 
1048 3002 
1049 3002 
1050 3002 
1051 3002 
1052 3002 
1053 3002 
1054 3002 
1055 3002 
1056 3002 
1057 3002 
1058 3002 
1059 3002 
1060 3002 
1061 3002 
1062 3002 
1063 3002 
1064 3002 
1065 3002 
1066 3002 
1067 3002 
1068 3002 
1069 3002 
1070 3002 
1071 3002 
1072 3002 
1073 3002 
1074 3002 
1075 3002 
1076 3002 
1077 3002 
1078 3002 
1079 3002 
1080 3002 
1081 3002 
1082 3002 
1083 3002 
1084 3002 
1085 3002 
1086 3002 
1087 3002 
1088 3002 
1089 3002 
1090 3002 
1091 3002 
1092 3002 
1093 3002 
1094 3002 
1095 3002 
1096 3002 
1097 3002 
1098 3002 
1099 3002 
1100 3002 
1101 3002 
1102 3002 
1103 3002 
1104 3002 
1105 3002 
1106 3002 
1107 3002 
1108 3002 
1109 3002 
1110 3002 
1111 3002 
1112 3002 
1113 3002 
1114 3002 
1115 3002 
1116 3002 
1117 3002 
1118 3002 
1119 3002 
1120 3002 
1121 3002 
1122 3002 
1123 3002 
1124 3002 
1125 3002 
1126 3002 
1127 3002 
1128 3002 
1129 3002 
1130 3002 
1131 3002 
1132 3002 
1133 3002 
1134 3002 
1135 3002 
1136 3002 
1137 3002 
1138 3002 
1139 3002 
1140 3002 
1141 3002 
1142 3002 
1143 3002 
1144 3002 
1145 3002 
1146 3002 
1147 3002 
1148 3002 
1149 3002 
1150 3002 
1151 3002 
1152 3002 
1153 3002 
1154 3002 
1155 3002 
1156 3002 
1157 3002 
1158 3002 
1159 3002 
1160 3002 
1161 3002 
1162 3002 
1163 3002 
1164 3002 
1165 3002 
1166 3002 
1167 3002 
1168 3002 
1169 3002 
1170 3002 
1171 3002 
1172 3002 
1173 3002 
1174 3002 
1175 3002 
1176 3002 
1177 3002 
1178 3002 
1179 3002 
1180 3002 
1181 3002 
1182 3002 
1183 3002 
1184 3002 
1185 3002 
1186 3002 
1187 3002 
1188 3002 
1189 3002 
1190 3002 
1191 3002 
1192 3002 
1193 3002 
1194 3002 
1195 3002 
1196 3002 
1197 3002 
1198 3002 
1199 3002 
1200 3002 
1201 3002 
1202 3002 
1203 3002 
1204 3002 
1205 3002 
1206 3002 
1207 3002 
1208 3002 
1209 3002 
1210 3002 
1211 3002 
1212 3002 
1213 3002 
1214 3002 
1215 3002 
1216 3002 
1217 3002 
1218 3002 
1219 3002 
1220 3002 
1221 3002 
1222 3002 
1223 3002 
1224 3002 
1225 3002 
1226 3002 
1227 3002 
1228 3002 
1229 3002 
1230 3002 
1231 3002 
1232 3002 
1233 3002 
1234 3002 
1235 3002 
1236 3002 
1237 3002 
1238 3002 
1239 3002 
1240 3002 
1241 3002 
1242 3002 
1243 3002 
1244 3002 
1245 3002 
1246 3002 
1247 3002 
1248 3002 
1249 3002 
1250 3002 
1251 3002 
1252 3002 
1253 3002 
1254 3002 
1255 3002 
1256 3002 
1257 3002 
1258 3002 
1259 3002 
1260 3002 
1261 3002 
1262 3002 
1263 3002 
1264 3002 
1265 3002 
1266 3002 
1267 3002 
1268 3002 
1269 3002 
1270 3002 
1271 3002 
1272 3002 
1273 3002 
1274 3002 
1275 3002 
1276 3002 
1277 3002 
1278 3002 
1279 3002 
1280 3002 
1281 3002 
1282 3002 
1283 3002 
1284 3002 
1285 3002 
1286 3002 
1287 3002 
1288 3002 
1289 3002 
1290 3002 
1291 3002 
1292 3002 
1293 3002 
1294 3002 
1295 3002 
1296 3002 
1297 3002 
1298 3002 
1299 3002 
1300 3002 
1301 3002 
1302 3002 
1303 3002 
1304 3002 
1305 3002 
1306 3002 
1307 3002 
1308 3002 
1309 3002 
1310 3002 
1311 3002 
1312 3002 
1313 3002 
1314 3002 
1315 3002 
1316 3002 
1317 3002 
1318 3002 
1319 3002 
1320 3002 
1321 3002 
1322 3002 
1323 3002 
1324 3002 
1325 3002 
1326 3002 
1327 3002 
1328 3002 
1329 3002 
1330 3002 
1331 3002 
1332 3002 
1333 3002 
1334 3002 
1335 3002 
1336 3002 
1337 3002 
1338 3002 
1339 3002 
1340 3002 
1341 3002 
1342 3002 
1343 3002 
1344 3002 
1345 3002 
1346 3002 
1347 3002 
1348 3002 
1349 3002 
1350 3002 
1351 3002 
1352 3002 
1353 3002 
1354 3002 
1355 3002 
1356 3002 
1357 3002 
1358 3002 
1359 3002 
1360 3002 
1361 3002 
1362 3002 
1363 3002 
1364 3002 
1365 3002 
1366 3002 
1367 3002 
1368 3002 
1369 3002 
1370 3002 
1371 3002 
1372 3002 
1373 3002 
1374 3002 
1375 3002 
1376 3002 
1377 3002 
1378 3002 
1379 3002 
1380 3002 
1381 3002 
1382 3002 
1383 3002 
1384 3002 
1385 3002 
1386 3002 
1387 3002 
1388 3002 
1389 3002 
1390 3002 
1391 3002 
1392 3002 
1393 3002 
1394 3002 
1395 3002 
1396 3002 
1397 3002 
1398 3002 
1399 3002 
1400 3002 
1401 3002 
1402 3002 
1403 3002 
1404 3002 
1405 3002 
1406 3002 
1407 3002 
1408 3002 
1409 3002 
1410 3002 
1411 3002 
1412 3002 
1413 3002 
1414 3002 
1415 3002 
1416 3002 
1417 3002 
1418 3002 
1419 3002 
1420 3002 
1421 3002 
1422 3002 
1423 3002 
1424 3002 
1425 3002 
1426 3002 
1427 3002 
1428 3002 
1429 3002 
1430 3002 
1431 3002 
1432 3002 
1433 3002 
1434 3002 
1435 3002 
1436 3002 
1437 3002 
1438 3002 
1439 3002 
1440 3002 
1441 3002 
1442 3002 
1443 3002 
1444 3002 
1445 3002 
1446 3002 
1447 3002 
1448 3002 
1449 3002 
1450 3002 
1451 3002 
1452 3002 
1453 3002 
1454 3002 
1455 3002 
1456 3002 
1457 3002 
1458 3002 
1459 3002 
1460 3002 
1461 3002 
1462 3002 
1463 3002 
1464 3002 
1465 3002 
1466 3002 
1467 3002 
1468 3002 
1469 3002 
1470 3002 
1471 3002 
1472 3002 
1473 3002 
1474 3002 
1475 3002 
1476 3002 
1477 3002 
1478 3002 
1479 3002 
1480 3002 
1481 3002 
1482 3002 
1483 3002 
1484 3002 
1485 3002 
1486 3002 
1487 3002 
1488 3002 
1489 3002 
1490 3002 
1491 3002 
1492 3002 
1493 3002 
1494 3002 
1495 3002 
1496 3002 
1497 3002 
1498 3002 
1499 3002 
1500 3002 
1501 3002 
1502 3002 
1503 3002 
1504 3002 
1505 3002 
1506 3002 
1507 3002 
1508 3002 
1509 3002 
1510 3002 
1511 3002 
1512 3002 
1513 3002 
1514 3002 
1515 3002 
1516 3002 
1517 3002 
1518 3002 
1519 3002 
1520 3002 
1521 3002 
1522 3002 
1523 3002 
1524 3002 
1525 3002 
1526 3002 
1527 3002 
1528 3002 
1529 3002 
1530 3002 
1531 3002 
1532 3002 
1533 3002 
1534 3002 
1535 3002 
1536 3002 
1537 3002 
1538 3002 
1539 3002 
1540 3002 
1541 3002 
1542 3002 
1543 3002 
1544 3002 
1545 3002 
1546 3002 
1547 3002 
1548 3002 
1549 3002 
1550 3002 
1551 3002 
1552 3002 
1553 3002 
1554 3002 
1555 3002 
1556 3002 
1557 3002 
1558 3002 
1559 3002 
1560 3002 
1561 3002 
1562 3002 
1563 3002 
1564 3002 
1565 3002 
1566 3002 
1567 3002 
1568 3002 
1569 3002 
1570 3002 
1571 3002 
1572 3002 
1573 3002 
1574 3002 
1575 3002 
1576 3002 
1577 3002 
1578 3002 
1579 3002 
1580 3002 
1581 3002 
1582 3002 
1583 3002 
1584 3002 
1585 3002 
1586 3002 
1587 3002 
1588 3002 
1589 3002 
1590 3002 
1591 3002 
1592 3002 
1593 3002 
1594 3002 
1595 3002 
1596 3002 
1597 3002 
1598 3002 
1599 3002 
1600 3002 
1601 3002 
1602 3002 
1603 3002 
1604 3002 
1605 3002 
1606 3002 
1607 3002 
1608 3002 
1609 3002 
1610 3002 
1611 3002 
1612 3002 
1613 3002 
1614 3002 
1615 3002 
1616 3002 
1617 3002 
1618 3002 
1619 3002 
1620 3002 
1621 3002 
1622 3002 
1623 3002 
1624 3002 
1625 3002 
1626 3002 
1627 3002 
1628 3002 
1629 3002 
1630 3002 
1631 3002 
1632 3002 
1633 3002 
1634 3002 
1635 3002 
1636 3002 
1637 3002 
1638 3002 
1639 3002 
1640 3002 
1641 3002 
1642 3002 
1643 3002 
1644 3002 
1645 3002 
1646 3002 
1647 3002 
1648 3002 
1649 3002 
1650 3002 
1651 3002 
1652 3002 
1653 3002 
1654 3002 
1655 3002 
1656 3002 
1657 3002 
1658 3002 
1659 3002 
1660 3002 
1661 3002 
1662 3002 
1663 3002 
1664 3002 
1665 3002 
1666 3002 
1667 3002 
1668 3002 
1669 3002 
1670 3002 
1671 3002 
1672 3002 
1673 3002 
1674 3002 
1675 3002 
1676 3002 
1677 3002 
1678 3002 
1679 3002 
1680 3002 
1681 3002 
1682 3002 
1683 3002 
1684 3002 
1685 3002 
1686 3002 
1687 3002 
1688 3002 
1689 3002 
1690 3002 
1691 3002 
1692 3002 
1693 3002 
1694 3002 
1695 3002 
1696 3002 
1697 3002 
1698 3002 
1699 3002 
1700 3002 
1701 3002 
1702 3002 
1703 3002 
1704 3002 
1705 3002 
1706 3002 
1707 3002 
1708 3002 
1709 3002 
1710 3002 
1711 3002 
1712 3002 
1713 3002 
1714 3002 
1715 3002 
1716 3002 
1717 3002 
1718 3002 
1719 3002 
1720 3002 
1721 3002 
1722 3002 
1723 3002 
1724 3002 
1725 3002 
1726 3002 
1727 3002 
1728 3002 
1729 3002 
1730 3002 
1731 3002 
1732 3002 
1733 3002 
1734 3002 
1735 3002 
1736 3002 
1737 3002 
1738 3002 
1739 3002 
1740 3002 
1741 3002 
1742 3002 
1743 3002 
1744 3002 
1745 3002 
1746 3002 
1747 3002 
1748 3002 
1749 3002 
1750 3002 
1751 3002 
1752 3002 
1753 3002 
1754 3002 
1755 3002 
1756 3002 
1757 3002 
1758 3002 
1759 3002 
1760 3002 
1761 3002 
1762 3002 
1763 3002 
1764 3002 
1765 3002 
1766 3002 
1767 3002 
1768 3002 
1769 3002 
1770 3002 
1771 3002 
1772 3002 
1773 3002 
1774 3002 
1775 3002 
1776 3002 
1777 3002 
1778 3002 
1779 3002 
1780 3002 
1781 3002 
1782 3002 
1783 3002 
1784 3002 
1785 3002 
1786 3002 
1787 3002 
1788 3002 
1789 3002 
1790 3002 
1791 3002 
1792 3002 
1793 3002 
1794 3002 
1795 3002 
1796 3002 
1797 3002 
1798 3002 
1799 3002 
1800 3002 
1801 3002 
1802 3002 
1803 3002 
1804 3002 
1805 3002 
1806 3002 
1807 3002 
1808 3002 
1809 3002 
1810 3002 
1811 3002 
1812 3002 
1813 3002 
1814 3002 
1815 3002 
1816 3002 
1817 3002 
1818 3002 
1819 3002 
1820 3002 
1821 3002 
1822 3002 
1823 3002 
1824 3002 
1825 3002 
1826 3002 
1827 3002 
1828 3002 
1829 3002 
1830 3002 
1831 3002 
1832 3002 
1833 3002 
1834 3002 
1835 3002 
1836 3002 
1837 3002 
1838 3002 
1839 3002 
1840 3002 
1841 3002 
1842 3002 
1843 3002 
1844 3002 
1845 3002 
1846 3002 
1847 3002 
1848 3002 
1849 3002 
1850 3002 
1851 3002 
1852 3002 
1853 3002 
1854 3002 
1855 3002 
1856 3002 
1857 3002 
1858 3002 
1859 3002 
1860 3002 
1861 3002 
1862 3002 
1863 3002 
1864 3002 
1865 3002 
1866 3002 
1867 3002 
1868 3002 
1869 3002 
1870 3002 
1871 3002 
1872 3002 
1873 3002 
1874 3002 
1875 3002 
1876 3002 
1877 3002 
1878 3002 
1879 3002 
1880 3002 
1881 3002 
1882 3002 
1883 3002 
1884 3002 
1885 3002 
1886 3002 
1887 3002 
1888 3002 
1889 3002 
1890 3002 
1891 3002 
1892 3002 
1893 3002 
1894 3002 
1895 3002 
1896 3002 
1897 3002 
1898 3002 
1899 3002 
1900 3002 
1901 3002 
1902 3002 
1903 3002 
1904 3002 
1905 3002 
1906 3002 
1907 3002 
1908 3002 
1909 3002 
1910 3002 
1911 3002 
1912 3002 
1913 3002 
1914 3002 
1915 3002 
1916 3002 
1917 3002 
1918 3002 
1919 3002 
1920 3002 
1921 3002 
1922 3002 
1923 3002 
1924 3002 
1925 3002 
1926 3002 
1927 3002 
1928 3002 
1929 3002 
1930 3002 
1931 3002 
1932 3002 
1933 3002 
1934 3002 
1935 3002 
1936 3002 
1937 3002 
1938 3002 
1939 3002 
1940 3002 
1941 3002 
1942 3002 
1943 3002 
1944 3002 
1945 3002 
1946 3002 
1947 3002 
1948 3002 
1949 3002 
1950 3002 
1951 3002 
1952 3002 
1953 3002 
1954 3002 
1955 3002 
1956 3002 
1957 3002 
1958 3002 
1959 3002 
1960 3002 
1961 3002 
1962 3002 
1963 3002 
1964 3002 
1965 3002 
1966 3002 
1967 3002 
1968 3002 
1969 3002 
1970 3002 
1971 3002 
1972 3002 
1973 3002 
1974 3002 
1975 3002 
1976 3002 
1977 3002 
1978 3002 
1979 3002 
1980 3002 
1981 3002 
1982 3002 
1983 3002 
1984 3002 
1985 3002 
1986 3002 
1987 3002 
1988 3002 
1989 3002 
1990 3002 
1991 3002 
1992 3002 
1993 3002 
1994 3002 
1995 3002 
1996 3002 
1997 3002 
1998 3002 
1999 3002 
2000 3002 
2001 3002 
2002 3002 
2003 3002 
2004 3002 
2005 3002 
2006 3002 
2007 3002 
2008 3002 
2009 3002 
2010 3002 
2011 3002 
2012 3002 
2013 3002 
2014 3002 
2015 3002 
2016 3002 
2017 3002 
2018 3002 
2019 3002 
2020 3002 
2021 3002 
2022 3002 
2023 3002 
2024 3002 
2025 3002 
2026 3002 
2027 3002 
2028 3002 
2029 3002 
2030 3002 
2031 3002 
2032 3002 
2033 3002 
2034 3002 
2035 3002 
2036 3002 
2037 3002 
2038 3002 
2039 3002 
2040 3002 
2041 3002 
2042 3002 
2043 3002 
2044 3002 
2045 3002 
2046 3002 
2047 3002 
2048 3002 
2049 3002 
2050 3002 
2051 3002 
2052 3002 
2053 3002 
2054 3002 
2055 3002 
2056 3002 
2057 3002 
2058 3002 
2059 3002 
2060 3002 
2061 3002 
2062 3002 
2063 3002 
2064 3002 
2065 3002 
2066 3002 
2067 3002 
2068 3002 
2069 3002 
2070 3002 
2071 3002 
2072 3002 
2073 3002 
2074 3002 
2075 3002 
2076 3002 
2077 3002 
2078 3002 
2079 3002 
2080 3002 
2081 3002 
2082 3002 
2083 3002 
2084 3002 
2085 3002 
2086 3002 
2087 3002 
2088 3002 
2089 3002 
2090 3002 
2091 3002 
2092 3002 
2093 3002 
2094 3002 
2095 3002 
2096 3002 
2097 3002 
2098 3002 
2099 3002 
2100 3002 
2101 3002 
2102 3002 
2103 3002 
2104 3002 
2105 3002 
2106 3002 
2107 3002 
2108 3002 
2109 3002 
2110 3002 
2111 3002 

